c 2 __LINUXTHREADS_OLD__
c 1 __UCLIBC_HAS_THREADS_NATIVE__
c 3 __UCLIBC_HAS_STDIO_BUFSIZ_NONE__
c 5 __UCLIBC_HAS_LOCALE__
c 7 __LINUXTHREADS_NEW__
c 6 __UCLIBC_HAS_WCHAR__
c 4 __UCLIBC_HAS_THREADS__
p cnf 7 1
1 -5 2 3 -4 -6 7 1
